\ Equation counts
\     Total        E        G        L        N        X        C        B
\	0	0	0	0
\
\ Variable counts
\                  x        b        i      s1s      s2s       sc       si
\     Total     cont   binary  integer     sos1     sos2    scont     sint
\	30	30

\ Nonzero counts
\     Total    const       NL      DLL
\
\
Minimize
 obj: [ - 12.0 x_1 * x_1 - 13.5 x_1 * x_2 + 22.0 x_1 * x_3 - 10.0 x_1 * x_4 - 7.0 x_1 * x_5 - 4.5 x_1 * x_6 - 23.5 x_1 * x_7 + 23.5 x_1 * x_8 + 16.0 x_1 * x_9 + 4.0 x_1 * x_12 - 14.5 x_1 * x_13 - 24.5 x_1 * x_14 + 22.0 x_1 * x_15 + 12.5 x_1 * x_16 + 0.5 x_1 * x_17 + 7.5 x_1 * x_20 + 5.5 x_1 * x_21 + 10.0 x_1 * x_22 - 13.0 x_1 * x_23 + 14.5 x_1 * x_24 + 12.0 x_1 * x_25 + 7.5 x_1 * x_26 + 2.0 x_1 * x_27 - 6.0 x_1 * x_28 - 20.0 x_1 * x_29 - 17.5 x_1 * x_30 - 13.5 x_2 * x_1 - 19.5 x_2 * x_2 - 8.0 x_2 * x_3 + 0.5 x_2 * x_4 - 19.0 x_2 * x_5 + 13.5 x_2 * x_6 + 2.0 x_2 * x_7 - 17.0 x_2 * x_8 + 21.0 x_2 * x_9 + 3.5 x_2 * x_11 - 10.0 x_2 * x_12 - 11.0 x_2 * x_13 + 3.5 x_2 * x_14 + 20.0 x_2 * x_15 + 12.5 x_2 * x_17 - 18.0 x_2 * x_18 - 20.0 x_2 * x_19 - 8.0 x_2 * x_20 - 13.5 x_2 * x_22 - 20.0 x_2 * x_23 + 15.5 x_2 * x_24 + 8.0 x_2 * x_25 + 16.5 x_2 * x_27 + 2.5 x_2 * x_29 - 8.5 x_2 * x_30 + 22.0 x_3 * x_1 - 8.0 x_3 * x_2 - 18.0 x_3 * x_3 + 0.5 x_3 * x_4 - 10.5 x_3 * x_5 + 5.0 x_3 * x_6 - 2.0 x_3 * x_8 + 15.5 x_3 * x_10 - 13.0 x_3 * x_11 - 13.5 x_3 * x_12 + 14.0 x_3 * x_13 - 6.0 x_3 * x_14 + 4.5 x_3 * x_15 - 20.5 x_3 * x_16 + 14.0 x_3 * x_17 - 18.0 x_3 * x_18 + 18.5 x_3 * x_20 + 15.0 x_3 * x_21 + 9.0 x_3 * x_22 + 21.5 x_3 * x_23 - 3.0 x_3 * x_24 - 20.5 x_3 * x_26 + 8.0 x_3 * x_27 - 24.0 x_3 * x_28 - 3.0 x_3 * x_29 - 18.5 x_3 * x_30 - 10.0 x_4 * x_1 + 0.5 x_4 * x_2 + 0.5 x_4 * x_3 - 6.0 x_4 * x_4 - 5.5 x_4 * x_5 - 14.5 x_4 * x_6 + 11.0 x_4 * x_7 + 18.5 x_4 * x_8 - 7.0 x_4 * x_9 + 9.5 x_4 * x_10 - 14.5 x_4 * x_11 + 20.5 x_4 * x_12 - 6.0 x_4 * x_13 - 19.5 x_4 * x_14 - 15.0 x_4 * x_15 + 19.0 x_4 * x_16 - 9.5 x_4 * x_17 + 8.0 x_4 * x_18 - 3.0 x_4 * x_19 - 23.0 x_4 * x_20 + 14.0 x_4 * x_21 - 15.0 x_4 * x_23 - 8.0 x_4 * x_24 + 3.5 x_4 * x_25 - 10.5 x_4 * x_26 + 11.5 x_4 * x_27 - 6.0 x_4 * x_29 + 16.0 x_4 * x_30 - 7.0 x_5 * x_1 - 19.0 x_5 * x_2 - 10.5 x_5 * x_3 - 5.5 x_5 * x_4 - 2.5 x_5 * x_5 - 8.5 x_5 * x_6 + 22.5 x_5 * x_7 + 21.0 x_5 * x_8 + 7.0 x_5 * x_9 + 13.5 x_5 * x_10 - 24.0 x_5 * x_11 - 8.5 x_5 * x_12 - 14.5 x_5 * x_13 + 2.0 x_5 * x_14 - 4.0 x_5 * x_15 - 1.0 x_5 * x_16 + 23.0 x_5 * x_18 + 18.0 x_5 * x_19 + 10.0 x_5 * x_20 + 10.5 x_5 * x_21 + 17.5 x_5 * x_23 + 10.0 x_5 * x_24 - 23.5 x_5 * x_25 - 6.5 x_5 * x_26 + 11.5 x_5 * x_27 - 16.0 x_5 * x_28 + 9.0 x_5 * x_29 + 22.0 x_5 * x_30 - 4.5 x_6 * x_1 + 13.5 x_6 * x_2 + 5.0 x_6 * x_3 - 14.5 x_6 * x_4 - 8.5 x_6 * x_5 - 23.0 x_6 * x_6 - 16.5 x_6 * x_7 + 19.0 x_6 * x_8 + 12.0 x_6 * x_9 - 2.5 x_6 * x_10 - 4.0 x_6 * x_11 - 18.5 x_6 * x_12 - 19.0 x_6 * x_13 - 16.0 x_6 * x_14 + 4.5 x_6 * x_15 - 8.5 x_6 * x_16 - 10.0 x_6 * x_17 + 19.0 x_6 * x_18 + 24.0 x_6 * x_19 + 19.5 x_6 * x_20 + 8.0 x_6 * x_21 + 14.0 x_6 * x_22 - 9.0 x_6 * x_24 - 24.0 x_6 * x_26 - 13.0 x_6 * x_27 + 19.5 x_6 * x_28 - 12.0 x_6 * x_29 - 23.0 x_6 * x_30 - 23.5 x_7 * x_1 + 2.0 x_7 * x_2 + 11.0 x_7 * x_4 + 22.5 x_7 * x_5 - 16.5 x_7 * x_6 - 9.5 x_7 * x_8 - 14.5 x_7 * x_9 - 4.5 x_7 * x_10 + 20.5 x_7 * x_11 - 16.0 x_7 * x_12 - 24.0 x_7 * x_13 - 23.0 x_7 * x_14 - 7.0 x_7 * x_16 + 10.0 x_7 * x_17 + 7.0 x_7 * x_18 + 1.0 x_7 * x_20 - 6.5 x_7 * x_23 - 9.0 x_7 * x_24 + 9.5 x_7 * x_25 + 8.5 x_7 * x_26 - 2.5 x_7 * x_27 + 22.5 x_7 * x_28 - 24.5 x_7 * x_29 + 20.5 x_7 * x_30 + 23.5 x_8 * x_1 - 17.0 x_8 * x_2 - 2.0 x_8 * x_3 + 18.5 x_8 * x_4 + 21.0 x_8 * x_5 + 19.0 x_8 * x_6 - 9.5 x_8 * x_7 - 8.5 x_8 * x_8 + 16.5 x_8 * x_9 - 1.0 x_8 * x_10 + 10.0 x_8 * x_11 + 12.5 x_8 * x_12 + 15.0 x_8 * x_13 + 17.5 x_8 * x_14 - 21.5 x_8 * x_15 + 17.5 x_8 * x_16 + 1.5 x_8 * x_17 + 22.5 x_8 * x_18 - 19.5 x_8 * x_19 - 22.5 x_8 * x_20 + 4.0 x_8 * x_22 + 0.5 x_8 * x_23 - 10.0 x_8 * x_24 - 21.5 x_8 * x_25 - 9.0 x_8 * x_26 + 11.5 x_8 * x_27 + 2.0 x_8 * x_28 - 0.5 x_8 * x_29 + 2.0 x_8 * x_30 + 16.0 x_9 * x_1 + 21.0 x_9 * x_2 - 7.0 x_9 * x_4 + 7.0 x_9 * x_5 + 12.0 x_9 * x_6 - 14.5 x_9 * x_7 + 16.5 x_9 * x_8 + 13.0 x_9 * x_9 + 11.0 x_9 * x_10 - 19.5 x_9 * x_11 + 7.0 x_9 * x_12 + 14.5 x_9 * x_13 + 5.5 x_9 * x_15 - 10.0 x_9 * x_16 - 24.0 x_9 * x_18 - 13.5 x_9 * x_19 - 3.0 x_9 * x_20 - 23.0 x_9 * x_21 - 21.5 x_9 * x_22 - 2.5 x_9 * x_23 + 21.0 x_9 * x_24 + 21.5 x_9 * x_25 - 7.5 x_9 * x_26 + 3.5 x_9 * x_27 - 18.0 x_9 * x_28 - 5.0 x_9 * x_29 + 15.5 x_9 * x_30 + 15.5 x_10 * x_3 + 9.5 x_10 * x_4 + 13.5 x_10 * x_5 - 2.5 x_10 * x_6 - 4.5 x_10 * x_7 - 1.0 x_10 * x_8 + 11.0 x_10 * x_9 - 5.5 x_10 * x_10 - 15.0 x_10 * x_11 + 23.0 x_10 * x_12 + 15.0 x_10 * x_13 + 10.0 x_10 * x_14 - 7.5 x_10 * x_15 - 11.0 x_10 * x_16 - 13.5 x_10 * x_17 - 20.0 x_10 * x_18 + 4.0 x_10 * x_19 - 15.5 x_10 * x_20 - 15.5 x_10 * x_21 - 15.0 x_10 * x_22 - 17.0 x_10 * x_23 + 7.0 x_10 * x_25 - 16.5 x_10 * x_26 + 21.0 x_10 * x_27 - 18.0 x_10 * x_28 - 23.0 x_10 * x_29 + 8.5 x_10 * x_30 + 3.5 x_11 * x_2 - 13.0 x_11 * x_3 - 14.5 x_11 * x_4 - 24.0 x_11 * x_5 - 4.0 x_11 * x_6 + 20.5 x_11 * x_7 + 10.0 x_11 * x_8 - 19.5 x_11 * x_9 - 15.0 x_11 * x_10 - 13.5 x_11 * x_11 + 15.5 x_11 * x_12 - 0.5 x_11 * x_14 - 8.5 x_11 * x_15 - 22.0 x_11 * x_16 - 15.0 x_11 * x_17 + 9.0 x_11 * x_18 - 17.0 x_11 * x_19 + 9.5 x_11 * x_20 + 5.5 x_11 * x_21 - 23.0 x_11 * x_22 - 23.0 x_11 * x_23 - 8.0 x_11 * x_24 + 19.0 x_11 * x_25 + 14.5 x_11 * x_26 - 9.5 x_11 * x_27 + 12.0 x_11 * x_29 + 6.5 x_11 * x_30 + 4.0 x_12 * x_1 - 10.0 x_12 * x_2 - 13.5 x_12 * x_3 + 20.5 x_12 * x_4 - 8.5 x_12 * x_5 - 18.5 x_12 * x_6 - 16.0 x_12 * x_7 + 12.5 x_12 * x_8 + 7.0 x_12 * x_9 + 23.0 x_12 * x_10 + 15.5 x_12 * x_11 + 23.5 x_12 * x_12 - 6.5 x_12 * x_13 + 8.5 x_12 * x_14 - 7.0 x_12 * x_15 + 24.0 x_12 * x_17 - 24.5 x_12 * x_18 + 21.0 x_12 * x_19 + 11.5 x_12 * x_20 + 1.0 x_12 * x_21 + 17.5 x_12 * x_22 - 17.0 x_12 * x_25 + 21.5 x_12 * x_26 + 5.5 x_12 * x_27 + 15.0 x_12 * x_28 - 22.0 x_12 * x_29 + 22.0 x_12 * x_30 - 14.5 x_13 * x_1 - 11.0 x_13 * x_2 + 14.0 x_13 * x_3 - 6.0 x_13 * x_4 - 14.5 x_13 * x_5 - 19.0 x_13 * x_6 - 24.0 x_13 * x_7 + 15.0 x_13 * x_8 + 14.5 x_13 * x_9 + 15.0 x_13 * x_10 - 6.5 x_13 * x_12 - 17.5 x_13 * x_13 + 8.0 x_13 * x_14 - 3.0 x_13 * x_16 - 3.5 x_13 * x_18 + 4.0 x_13 * x_19 - 19.5 x_13 * x_20 + 21.0 x_13 * x_21 - 14.5 x_13 * x_23 - 16.0 x_13 * x_24 + 20.0 x_13 * x_26 + 5.5 x_13 * x_27 + 17.0 x_13 * x_28 + 6.5 x_13 * x_29 + 23.0 x_13 * x_30 - 24.5 x_14 * x_1 + 3.5 x_14 * x_2 - 6.0 x_14 * x_3 - 19.5 x_14 * x_4 + 2.0 x_14 * x_5 - 16.0 x_14 * x_6 - 23.0 x_14 * x_7 + 17.5 x_14 * x_8 + 10.0 x_14 * x_10 - 0.5 x_14 * x_11 + 8.5 x_14 * x_12 + 8.0 x_14 * x_13 - 0.5 x_14 * x_14 + 22.5 x_14 * x_16 - 19.0 x_14 * x_17 - 22.0 x_14 * x_18 + 16.5 x_14 * x_19 + 10.5 x_14 * x_20 - 5.5 x_14 * x_21 - 9.5 x_14 * x_22 + 15.0 x_14 * x_24 + 22.0 x_14 * x_26 - 24.0 x_14 * x_27 - 4.5 x_14 * x_28 - 6.5 x_14 * x_29 + 14.0 x_14 * x_30 + 22.0 x_15 * x_1 + 20.0 x_15 * x_2 + 4.5 x_15 * x_3 - 15.0 x_15 * x_4 - 4.0 x_15 * x_5 + 4.5 x_15 * x_6 - 21.5 x_15 * x_8 + 5.5 x_15 * x_9 - 7.5 x_15 * x_10 - 8.5 x_15 * x_11 - 7.0 x_15 * x_12 + 21.5 x_15 * x_15 + 14.0 x_15 * x_16 + 19.5 x_15 * x_18 + 19.0 x_15 * x_19 + 24.5 x_15 * x_20 - 5.0 x_15 * x_21 - 20.0 x_15 * x_23 - 11.5 x_15 * x_24 + 16.0 x_15 * x_25 - 4.5 x_15 * x_26 + 23.5 x_15 * x_27 - 6.0 x_15 * x_28 - 20.0 x_15 * x_30 + 12.5 x_16 * x_1 - 20.5 x_16 * x_3 + 19.0 x_16 * x_4 - 1.0 x_16 * x_5 - 8.5 x_16 * x_6 - 7.0 x_16 * x_7 + 17.5 x_16 * x_8 - 10.0 x_16 * x_9 - 11.0 x_16 * x_10 - 22.0 x_16 * x_11 - 3.0 x_16 * x_13 + 22.5 x_16 * x_14 + 14.0 x_16 * x_15 + 9.5 x_16 * x_16 + 13.0 x_16 * x_17 + 21.5 x_16 * x_18 + 24.5 x_16 * x_19 - 5.0 x_16 * x_20 + 20.5 x_16 * x_21 - 5.5 x_16 * x_22 - 8.5 x_16 * x_23 + 16.5 x_16 * x_24 + 24.5 x_16 * x_25 + 20.0 x_16 * x_26 + 23.0 x_16 * x_27 - 3.0 x_16 * x_28 + 12.5 x_16 * x_29 - 5.5 x_16 * x_30 + 0.5 x_17 * x_1 + 12.5 x_17 * x_2 + 14.0 x_17 * x_3 - 9.5 x_17 * x_4 - 10.0 x_17 * x_6 + 10.0 x_17 * x_7 + 1.5 x_17 * x_8 - 13.5 x_17 * x_10 - 15.0 x_17 * x_11 + 24.0 x_17 * x_12 - 19.0 x_17 * x_14 + 13.0 x_17 * x_16 + 12.5 x_17 * x_17 + 20.0 x_17 * x_18 - 5.5 x_17 * x_19 + 5.0 x_17 * x_20 - 18.5 x_17 * x_21 + 24.0 x_17 * x_22 - 15.0 x_17 * x_23 - 20.5 x_17 * x_24 - 1.0 x_17 * x_25 - 1.0 x_17 * x_27 + 16.5 x_17 * x_28 + 16.0 x_17 * x_29 - 18.0 x_18 * x_2 - 18.0 x_18 * x_3 + 8.0 x_18 * x_4 + 23.0 x_18 * x_5 + 19.0 x_18 * x_6 + 7.0 x_18 * x_7 + 22.5 x_18 * x_8 - 24.0 x_18 * x_9 - 20.0 x_18 * x_10 + 9.0 x_18 * x_11 - 24.5 x_18 * x_12 - 3.5 x_18 * x_13 - 22.0 x_18 * x_14 + 19.5 x_18 * x_15 + 21.5 x_18 * x_16 + 20.0 x_18 * x_17 + 12.0 x_18 * x_18 + 3.0 x_18 * x_19 - 0.5 x_18 * x_20 + 1.0 x_18 * x_21 - 1.5 x_18 * x_22 - 24.0 x_18 * x_23 - 23.5 x_18 * x_24 + 9.5 x_18 * x_25 - 8.0 x_18 * x_26 + 17.5 x_18 * x_27 + 16.5 x_18 * x_28 - 15.5 x_18 * x_29 - 16.0 x_18 * x_30 - 20.0 x_19 * x_2 - 3.0 x_19 * x_4 + 18.0 x_19 * x_5 + 24.0 x_19 * x_6 - 19.5 x_19 * x_8 - 13.5 x_19 * x_9 + 4.0 x_19 * x_10 - 17.0 x_19 * x_11 + 21.0 x_19 * x_12 + 4.0 x_19 * x_13 + 16.5 x_19 * x_14 + 19.0 x_19 * x_15 + 24.5 x_19 * x_16 - 5.5 x_19 * x_17 + 3.0 x_19 * x_18 + 21.5 x_19 * x_19 - 21.0 x_19 * x_20 + 11.0 x_19 * x_22 - 22.0 x_19 * x_23 - 12.5 x_19 * x_24 - 17.5 x_19 * x_27 - 20.0 x_19 * x_28 - 18.0 x_19 * x_29 - 3.5 x_19 * x_30 + 7.5 x_20 * x_1 - 8.0 x_20 * x_2 + 18.5 x_20 * x_3 - 23.0 x_20 * x_4 + 10.0 x_20 * x_5 + 19.5 x_20 * x_6 + 1.0 x_20 * x_7 - 22.5 x_20 * x_8 - 3.0 x_20 * x_9 - 15.5 x_20 * x_10 + 9.5 x_20 * x_11 + 11.5 x_20 * x_12 - 19.5 x_20 * x_13 + 10.5 x_20 * x_14 + 24.5 x_20 * x_15 - 5.0 x_20 * x_16 + 5.0 x_20 * x_17 - 0.5 x_20 * x_18 - 21.0 x_20 * x_19 - 8.5 x_20 * x_20 - 5.0 x_20 * x_21 + 2.5 x_20 * x_22 + 5.5 x_20 * x_23 + 15.5 x_20 * x_24 - 9.5 x_20 * x_26 - 20.5 x_20 * x_27 + 10.5 x_20 * x_28 + 5.5 x_21 * x_1 + 15.0 x_21 * x_3 + 14.0 x_21 * x_4 + 10.5 x_21 * x_5 + 8.0 x_21 * x_6 - 23.0 x_21 * x_9 - 15.5 x_21 * x_10 + 5.5 x_21 * x_11 + 1.0 x_21 * x_12 + 21.0 x_21 * x_13 - 5.5 x_21 * x_14 - 5.0 x_21 * x_15 + 20.5 x_21 * x_16 - 18.5 x_21 * x_17 + 1.0 x_21 * x_18 - 5.0 x_21 * x_20 + 11.5 x_21 * x_21 - 18.0 x_21 * x_22 - 6.5 x_21 * x_23 - 4.0 x_21 * x_24 + 8.0 x_21 * x_25 + 5.5 x_21 * x_26 + 17.0 x_21 * x_27 + 10.0 x_21 * x_28 - 18.5 x_21 * x_29 + 20.5 x_21 * x_30 + 10.0 x_22 * x_1 - 13.5 x_22 * x_2 + 9.0 x_22 * x_3 + 14.0 x_22 * x_6 + 4.0 x_22 * x_8 - 21.5 x_22 * x_9 - 15.0 x_22 * x_10 - 23.0 x_22 * x_11 + 17.5 x_22 * x_12 - 9.5 x_22 * x_14 - 5.5 x_22 * x_16 + 24.0 x_22 * x_17 - 1.5 x_22 * x_18 + 11.0 x_22 * x_19 + 2.5 x_22 * x_20 - 18.0 x_22 * x_21 + 15.0 x_22 * x_22 - 4.0 x_22 * x_23 + 3.0 x_22 * x_24 - 16.5 x_22 * x_25 - 11.0 x_22 * x_26 + 6.5 x_22 * x_27 + 20.0 x_22 * x_29 - 13.0 x_23 * x_1 - 20.0 x_23 * x_2 + 21.5 x_23 * x_3 - 15.0 x_23 * x_4 + 17.5 x_23 * x_5 - 6.5 x_23 * x_7 + 0.5 x_23 * x_8 - 2.5 x_23 * x_9 - 17.0 x_23 * x_10 - 23.0 x_23 * x_11 - 14.5 x_23 * x_13 - 20.0 x_23 * x_15 - 8.5 x_23 * x_16 - 15.0 x_23 * x_17 - 24.0 x_23 * x_18 - 22.0 x_23 * x_19 + 5.5 x_23 * x_20 - 6.5 x_23 * x_21 - 4.0 x_23 * x_22 + 19.5 x_23 * x_27 + 18.5 x_23 * x_28 + 4.0 x_23 * x_29 - 11.0 x_23 * x_30 + 14.5 x_24 * x_1 + 15.5 x_24 * x_2 - 3.0 x_24 * x_3 - 8.0 x_24 * x_4 + 10.0 x_24 * x_5 - 9.0 x_24 * x_6 - 9.0 x_24 * x_7 - 10.0 x_24 * x_8 + 21.0 x_24 * x_9 - 8.0 x_24 * x_11 - 16.0 x_24 * x_13 + 15.0 x_24 * x_14 - 11.5 x_24 * x_15 + 16.5 x_24 * x_16 - 20.5 x_24 * x_17 - 23.5 x_24 * x_18 - 12.5 x_24 * x_19 + 15.5 x_24 * x_20 - 4.0 x_24 * x_21 + 3.0 x_24 * x_22 - 1.0 x_24 * x_24 - 18.0 x_24 * x_25 - 20.0 x_24 * x_26 - 20.0 x_24 * x_27 - 2.5 x_24 * x_28 + 9.0 x_24 * x_29 - 11.5 x_24 * x_30 + 12.0 x_25 * x_1 + 8.0 x_25 * x_2 + 3.5 x_25 * x_4 - 23.5 x_25 * x_5 + 9.5 x_25 * x_7 - 21.5 x_25 * x_8 + 21.5 x_25 * x_9 + 7.0 x_25 * x_10 + 19.0 x_25 * x_11 - 17.0 x_25 * x_12 + 16.0 x_25 * x_15 + 24.5 x_25 * x_16 - 1.0 x_25 * x_17 + 9.5 x_25 * x_18 + 8.0 x_25 * x_21 - 16.5 x_25 * x_22 - 18.0 x_25 * x_24 + 10.0 x_25 * x_25 - 9.5 x_25 * x_27 + 13.5 x_25 * x_28 - 21.5 x_25 * x_29 + 6.0 x_25 * x_30 + 7.5 x_26 * x_1 - 20.5 x_26 * x_3 - 10.5 x_26 * x_4 - 6.5 x_26 * x_5 - 24.0 x_26 * x_6 + 8.5 x_26 * x_7 - 9.0 x_26 * x_8 - 7.5 x_26 * x_9 - 16.5 x_26 * x_10 + 14.5 x_26 * x_11 + 21.5 x_26 * x_12 + 20.0 x_26 * x_13 + 22.0 x_26 * x_14 - 4.5 x_26 * x_15 + 20.0 x_26 * x_16 - 8.0 x_26 * x_18 - 9.5 x_26 * x_20 + 5.5 x_26 * x_21 - 11.0 x_26 * x_22 - 20.0 x_26 * x_24 - 11.0 x_26 * x_26 - 5.0 x_26 * x_29 + 7.0 x_26 * x_30 + 2.0 x_27 * x_1 + 16.5 x_27 * x_2 + 8.0 x_27 * x_3 + 11.5 x_27 * x_4 + 11.5 x_27 * x_5 - 13.0 x_27 * x_6 - 2.5 x_27 * x_7 + 11.5 x_27 * x_8 + 3.5 x_27 * x_9 + 21.0 x_27 * x_10 - 9.5 x_27 * x_11 + 5.5 x_27 * x_12 + 5.5 x_27 * x_13 - 24.0 x_27 * x_14 + 23.5 x_27 * x_15 + 23.0 x_27 * x_16 - 1.0 x_27 * x_17 + 17.5 x_27 * x_18 - 17.5 x_27 * x_19 - 20.5 x_27 * x_20 + 17.0 x_27 * x_21 + 6.5 x_27 * x_22 + 19.5 x_27 * x_23 - 20.0 x_27 * x_24 - 9.5 x_27 * x_25 + 18.5 x_27 * x_28 + 6.5 x_27 * x_29 - 9.5 x_27 * x_30 - 6.0 x_28 * x_1 - 24.0 x_28 * x_3 - 16.0 x_28 * x_5 + 19.5 x_28 * x_6 + 22.5 x_28 * x_7 + 2.0 x_28 * x_8 - 18.0 x_28 * x_9 - 18.0 x_28 * x_10 + 15.0 x_28 * x_12 + 17.0 x_28 * x_13 - 4.5 x_28 * x_14 - 6.0 x_28 * x_15 - 3.0 x_28 * x_16 + 16.5 x_28 * x_17 + 16.5 x_28 * x_18 - 20.0 x_28 * x_19 + 10.5 x_28 * x_20 + 10.0 x_28 * x_21 + 18.5 x_28 * x_23 - 2.5 x_28 * x_24 + 13.5 x_28 * x_25 + 18.5 x_28 * x_27 - 15.5 x_28 * x_28 - 1.5 x_28 * x_29 + 24.0 x_28 * x_30 - 20.0 x_29 * x_1 + 2.5 x_29 * x_2 - 3.0 x_29 * x_3 - 6.0 x_29 * x_4 + 9.0 x_29 * x_5 - 12.0 x_29 * x_6 - 24.5 x_29 * x_7 - 0.5 x_29 * x_8 - 5.0 x_29 * x_9 - 23.0 x_29 * x_10 + 12.0 x_29 * x_11 - 22.0 x_29 * x_12 + 6.5 x_29 * x_13 - 6.5 x_29 * x_14 + 12.5 x_29 * x_16 + 16.0 x_29 * x_17 - 15.5 x_29 * x_18 - 18.0 x_29 * x_19 - 18.5 x_29 * x_21 + 20.0 x_29 * x_22 + 4.0 x_29 * x_23 + 9.0 x_29 * x_24 - 21.5 x_29 * x_25 - 5.0 x_29 * x_26 + 6.5 x_29 * x_27 - 1.5 x_29 * x_28 + 5.5 x_29 * x_29 - 5.5 x_29 * x_30 - 17.5 x_30 * x_1 - 8.5 x_30 * x_2 - 18.5 x_30 * x_3 + 16.0 x_30 * x_4 + 22.0 x_30 * x_5 - 23.0 x_30 * x_6 + 20.5 x_30 * x_7 + 2.0 x_30 * x_8 + 15.5 x_30 * x_9 + 8.5 x_30 * x_10 + 6.5 x_30 * x_11 + 22.0 x_30 * x_12 + 23.0 x_30 * x_13 + 14.0 x_30 * x_14 - 20.0 x_30 * x_15 - 5.5 x_30 * x_16 - 16.0 x_30 * x_18 - 3.5 x_30 * x_19 + 20.5 x_30 * x_21 - 11.0 x_30 * x_23 - 11.5 x_30 * x_24 + 6.0 x_30 * x_25 + 7.0 x_30 * x_26 - 9.5 x_30 * x_27 + 24.0 x_30 * x_28 - 5.5 x_30 * x_29 ] + 15.0 x_1 - 46.0 x_2 + 42.0 x_3 + 16.0 x_4 + 33.0 x_5 - 34.0 x_6 - 39.0 x_7 + 0.0 x_8 - 26.0 x_9 - 27.0 x_10 - 7.0 x_11 - 4.0 x_12 - 49.0 x_13 + 38.0 x_14 + 38.0 x_15 + 7.0 x_16 + 0.0 x_17 + 36.0 x_18 - 3.0 x_19 - 11.0 x_20 + 0.0 x_21 + 31.0 x_22 - 18.0 x_23 + 0.0 x_24 + 0.0 x_25 - 32.0 x_26 + 17.0 x_27 - 12.0 x_28 - 44.0 x_29 + 45.0 x_30

Subject To

Bounds
 x_1 <= 1.0
 x_2 <= 1.0
 x_3 <= 1.0
 x_4 <= 1.0
 x_5 <= 1.0
 x_6 <= 1.0
 x_7 <= 1.0
 x_8 <= 1.0
 x_9 <= 1.0
 x_10 <= 1.0
 x_11 <= 1.0
 x_12 <= 1.0
 x_13 <= 1.0
 x_14 <= 1.0
 x_15 <= 1.0
 x_16 <= 1.0
 x_17 <= 1.0
 x_18 <= 1.0
 x_19 <= 1.0
 x_20 <= 1.0
 x_21 <= 1.0
 x_22 <= 1.0
 x_23 <= 1.0
 x_24 <= 1.0
 x_25 <= 1.0
 x_26 <= 1.0
 x_27 <= 1.0
 x_28 <= 1.0
 x_29 <= 1.0
 x_30 <= 1.0

End